524
449
675
350
643
578
529
488
505
420
464
367
496
426
527
550
417
480
417
414
485
376
565
469
345
433
394
355
475
455
842
550
427
359
471
336
507
730
524
548
416
497
423
512
434
238
640
340
457
398
589
512
561
389
530
519
507
377
411
498
488
568
395
513
456
325
447
384
385
558
328
361
388
435
599
388
446
605
497
582
678
407
521
628
427
583
554
510
475
472
387
492
480
400
463
512
425
296
519
485
